param n := 60;
param c := 3000
param : V : p w :=
   0	  44	 403
   1	  30	 287
   2	  26	 310
   3	  10	 427
   4	  51	 281
   5	  44	 292
   6	  94	 451
   7	  19	 265
   8	  17	 284
   9	  19	 450
  10	  34	 250
  11	  81	 300
  12	  59	 400
  13	  22	 278
  14	  71	 322
  15	  55	 374
  16	  12	 261
  17	  16	 365
  18	  52	 380
  19	  74	 276
  20	  53	 344
  21	  98	 464
  22	  51	 252
  23	  96	 284
  24	  19	 394
  25	  51	 269
  26	  11	 337
  27	  49	 375
  28	   2	 297
  29	  52	 328
  30	   7	 498
  31	   2	 250
  32	  51	 252
  33	  41	 374
  34	  80	 304
  35	  53	 322
  36	  81	 355
  37	   1	 276
  38	  60	 369
  39	  47	 485
  40	   6	 253
  41	  20	 262
  42	  25	 357
  43	  41	 275
  44	  16	 368
  45	  67	 424
  46	  12	 259
  47	  87	 317
  48	  39	 471
  49	  66	 250
  50	  87	 279
  51	  44	 388
  52	  96	 273
  53	  39	 339
  54	  67	 449
  55	  82	 275
  56	  99	 276
  57	  15	 405
  58	  81	 274
  59	  42	 321
;

set E :=
   0	  13
   0	  27
   0	  31
   0	  35
   0	  40
   0	  44
   0	  45
   1	  24
   1	  27
   1	  38
   1	  40
   1	  47
   1	  54
   1	  55
   1	  56
   1	  57
   2	   4
   2	   5
   2	   7
   2	  13
   2	  14
   2	  19
   3	   9
   3	  18
   3	  32
   3	  46
   4	   8
   4	  25
   4	  33
   4	  35
   4	  41
   4	  42
   4	  55
   5	  21
   5	  24
   5	  25
   5	  32
   6	  30
   7	   9
   7	  12
   7	  18
   7	  50
   7	  54
   8	  17
   8	  18
   8	  24
   8	  43
   8	  49
   8	  55
   9	  51
  10	  19
  10	  26
  10	  31
  10	  37
  10	  55
  11	  12
  11	  23
  11	  26
  11	  28
  11	  35
  11	  50
  11	  59
  12	  14
  12	  19
  12	  22
  12	  29
  12	  50
  13	  16
  13	  27
  13	  45
  13	  51
  14	  17
  14	  28
  14	  43
  14	  47
  14	  51
  15	  30
  15	  41
  15	  46
  15	  48
  15	  53
  16	  20
  16	  30
  16	  35
  16	  42
  16	  56
  17	  19
  17	  48
  17	  56
  18	  22
  18	  27
  18	  37
  18	  41
  19	  22
  19	  23
  19	  48
  19	  51
  19	  54
  19	  57
  20	  21
  20	  28
  20	  39
  20	  43
  21	  23
  21	  41
  21	  56
  22	  23
  22	  36
  22	  40
  22	  44
  22	  52
  23	  26
  23	  36
  23	  42
  23	  53
  24	  28
  24	  35
  24	  39
  24	  45
  24	  53
  25	  30
  25	  31
  25	  35
  26	  28
  26	  48
  26	  53
  27	  38
  27	  41
  27	  43
  27	  48
  27	  49
  27	  55
  28	  35
  28	  47
  28	  49
  28	  55
  29	  44
  29	  45
  29	  46
  30	  34
  30	  35
  31	  38
  32	  42
  32	  43
  32	  45
  32	  59
  33	  35
  33	  36
  33	  44
  33	  51
  33	  55
  34	  50
  35	  42
  35	  43
  36	  51
  36	  55
  37	  50
  37	  53
  38	  39
  38	  53
  39	  48
  39	  56
  40	  47
  40	  50
  41	  45
  41	  54
  42	  46
  42	  51
  43	  55
  43	  58
  44	  53
  44	  59
  45	  50
  45	  52
  46	  47
  46	  52
  46	  53
  51	  54
  55	  59
  57	  59
;
